presolving:
(round 1, fast)       439 del vars, 0 del conss, 0 add conss, 0 chg bounds, 0 chg sides, 0 chg coeffs, 0 upgd conss, 0 impls, 97019 clqs
(round 2, exhaustive) 439 del vars, 0 del conss, 0 add conss, 0 chg bounds, 0 chg sides, 0 chg coeffs, 97019 upgd conss, 0 impls, 97019 clqs
   (7.0s) probing: 51/192282 (0.0%) - 0 fixings, 0 aggregations, 0 implications, 0 bound changes
   (7.0s) probing aborted: 50/50 successive totally useless probings
   Deactivated symmetry handling methods, since SCIP was built without symmetry detector (SYM=none).
presolving (3 rounds: 3 fast, 2 medium, 2 exhaustive):
 439 deleted vars, 0 deleted constraints, 0 added constraints, 0 tightened bounds, 0 added holes, 0 changed sides, 0 changed coefficients
 0 implications, 97019 cliques
presolved problem has 192282 variables (192282 bin, 0 int, 0 impl, 0 cont) and 97019 constraints
  97019 constraints of type <setppc>
Presolving Time: 7.00

 time | node  | left  |LP iter|LP it/n|mem/heur|mdpt |vars |cons |rows |cuts |sepa|confs|strbr|  dualbound   | primalbound  |  gap   | compl. 
p 9.0s|     1 |     0 |     0 |     - |  clique|   0 | 192k|  97k| 878 |   0 |  0 |   0 |   0 | 0.000000e+00 | 1.186533e+05 |    Inf | unknown
 25.0s|     1 |     0 |   706 |     - |  1327M |   0 | 192k|  97k| 878 |   0 |  0 |  14 |   0 | 7.688340e+04 | 1.186533e+05 |  54.33%| unknown
 25.0s|     1 |     0 |  1086 |     - |  1327M |   0 | 192k|  97k|1054 | 176 |  1 |  14 |   0 | 9.274593e+04 | 1.186533e+05 |  27.93%| unknown
 28.0s|     1 |     0 |  1126 |     - |  1357M |   0 | 192k|  97k|1077 | 199 |  2 |  14 |   0 | 9.359689e+04 | 1.186533e+05 |  26.77%| unknown
 31.0s|     1 |     0 |  1129 |     - |  1366M |   0 | 192k|  97k|1078 | 200 |  3 |  14 |   0 | 9.371099e+04 | 1.186533e+05 |  26.62%| unknown
 33.0s|     1 |     0 |  1138 |     - |  1372M |   0 | 192k|  97k|1086 | 208 |  4 |  14 |   0 | 9.371841e+04 | 1.186533e+05 |  26.61%| unknown
 37.0s|     1 |     0 |  1166 |     - |  1384M |   0 | 192k|  97k|1106 | 228 |  5 |  14 |   0 | 9.406565e+04 | 1.186533e+05 |  26.14%| unknown
 40.0s|     1 |     0 |  1179 |     - |  1403M |   0 | 192k|  97k|1117 | 239 |  6 |  14 |   0 | 9.409198e+04 | 1.186533e+05 |  26.10%| unknown
 44.0s|     1 |     0 |  1201 |     - |  1419M |   0 | 192k|  97k|1127 | 249 |  7 |  14 |   0 | 9.427128e+04 | 1.186533e+05 |  25.86%| unknown
 47.0s|     1 |     0 |  1220 |     - |  1429M |   0 | 192k|  97k|1138 | 260 |  8 |  14 |   0 | 9.430678e+04 | 1.186533e+05 |  25.82%| unknown
 51.0s|     1 |     0 |  1273 |     - |  1436M |   0 | 192k|  97k|1162 | 284 |  9 |  14 |   0 | 9.462772e+04 | 1.186533e+05 |  25.39%| unknown
 54.0s|     1 |     0 |  1287 |     - |  1451M |   0 | 192k|  97k|1171 | 293 | 10 |  14 |   0 | 9.464561e+04 | 1.186533e+05 |  25.37%| unknown
 59.0s|     1 |     0 |  1312 |     - |  1462M |   0 | 192k|  97k|1131 | 306 | 11 |  14 |   0 | 9.481958e+04 | 1.186533e+05 |  25.14%| unknown
 60.0s|     1 |     0 |  1321 |     - |  1469M |   0 | 192k|  97k|1136 | 311 | 12 |  14 |   0 | 9.484816e+04 | 1.186533e+05 |  25.10%| unknown
 60.0s|     1 |     0 |  1331 |     - |  1471M |   0 | 192k|  97k|1139 | 314 | 13 |  14 |   0 | 9.486575e+04 | 1.186533e+05 |  25.07%| unknown
 time | node  | left  |LP iter|LP it/n|mem/heur|mdpt |vars |cons |rows |cuts |sepa|confs|strbr|  dualbound   | primalbound  |  gap   | compl. 
 61.0s|     1 |     0 |  1335 |     - |  1471M |   0 | 192k|  97k|1141 | 316 | 14 |  14 |   0 | 9.486575e+04 | 1.186533e+05 |  25.07%| unknown
 62.0s|     1 |     0 |  1341 |     - |  1471M |   0 | 192k|  97k|1143 | 318 | 15 |  14 |   0 | 9.487387e+04 | 1.186533e+05 |  25.06%| unknown
 63.0s|     1 |     0 |  1344 |     - |  1471M |   0 | 192k|  97k|1146 | 321 | 16 |  14 |   0 | 9.487423e+04 | 1.186533e+05 |  25.06%| unknown
 64.0s|     1 |     0 |  1346 |     - |  1471M |   0 | 192k|  97k|1122 | 322 | 17 |  14 |   0 | 9.488166e+04 | 1.186533e+05 |  25.05%| unknown
 65.0s|     1 |     0 |  1350 |     - |  1471M |   0 | 192k|  97k|1123 | 323 | 18 |  14 |   0 | 9.488413e+04 | 1.186533e+05 |  25.05%| unknown
 66.0s|     1 |     0 |  1352 |     - |  1472M |   0 | 192k|  97k|1124 | 324 | 19 |  14 |   0 | 9.488413e+04 | 1.186533e+05 |  25.05%| unknown
 67.0s|     1 |     0 |  1355 |     - |  1472M |   0 | 192k|  97k|1125 | 325 | 20 |  14 |   0 | 9.488413e+04 | 1.186533e+05 |  25.05%| unknown
 67.0s|     1 |     0 |  1360 |     - |  1473M |   0 | 192k|  97k|1126 | 326 | 21 |  14 |   0 | 9.488433e+04 | 1.186533e+05 |  25.05%| unknown
 68.0s|     1 |     0 |  1374 |     - |  1473M |   0 | 192k|  97k|1134 | 334 | 22 |  14 |   0 | 9.489376e+04 | 1.186533e+05 |  25.04%| unknown
L85.0s|     1 |     0 |  3611 |     - |    alns|   0 | 192k|  97k|1134 | 334 | 23 |  14 |   0 | 9.489376e+04 | 1.161832e+05 |  22.44%| unknown
 85.0s|     1 |     0 |  3611 |     - |  1485M |   0 | 192k|  97k|1134 | 334 | 23 |  14 |   0 | 9.489376e+04 | 1.161832e+05 |  22.44%| unknown
 92.0s|     1 |     2 |  3611 |     - |  1490M |   0 | 192k|  97k|1134 | 334 | 25 |  14 |  19 | 9.505902e+04 | 1.161832e+05 |  22.22%| unknown
* 205s|    17 |    16 |  3932 | 159.9 |strongbr|  15 | 192k|  97k|1082 | 368 |  4 |  14 | 359 | 9.505902e+04 | 9.607240e+04 |   1.07%| unknown
* 219s|    19 |    16 |  3973 | 144.4 |    LP  |  16 | 192k|  97k|1082 | 374 | 10 |  68k| 390 | 9.505902e+04 | 9.605660e+04 |   1.05%| unknown
* 248s|    23 |    16 |  4026 | 120.5 |strongbr|  18 | 192k|  97k|1077 | 375 |  5 |  68k| 461 | 9.505902e+04 | 9.599094e+04 |   0.98%| unknown
 time | node  | left  |LP iter|LP it/n|mem/heur|mdpt |vars |cons |rows |cuts |sepa|confs|strbr|  dualbound   | primalbound  |  gap   | compl. 
* 302s|    29 |    13 |  4176 | 100.1 |strongbr|  18 | 192k|  97k|1077 | 384 |  5 |  68k| 549 | 9.505902e+04 | 9.595798e+04 |   0.95%| unknown
* 350s|    35 |    17 |  4402 |  89.1 |strongbr|  18 | 192k|  97k|1089 | 428 |  3 |  68k| 661 | 9.505902e+04 | 9.595495e+04 |   0.94%| unknown
* 375s|    40 |    18 |  4460 |  79.1 |    LP  |  18 | 192k|  97k|1091 | 430 |  1 |  68k| 738 | 9.505902e+04 | 9.589416e+04 |   0.88%| unknown
* 474s|    57 |    27 |  4839 |  61.9 |strongbr|  18 | 192k|  97k|1071 | 486 |  2 |  69k|1050 | 9.511336e+04 | 9.587199e+04 |   0.80%| unknown
* 475s|    57 |    26 |  4839 |  61.9 |strongbr|  18 | 192k|  97k|1071 | 486 |  2 |  69k|1057 | 9.511336e+04 | 9.585879e+04 |   0.78%| unknown
* 594s|    82 |    30 |  5534 |  51.4 |strongbr|  18 | 192k|  97k|1089 | 535 |  2 |  69k|1416 | 9.515506e+04 | 9.583303e+04 |   0.71%|   5.23%
* 600s|    82 |    30 |  5548 |  51.5 |    LP  |  18 | 192k|  97k|1090 | 536 |  7 |  69k|1432 | 9.515506e+04 | 9.580314e+04 |   0.68%|   5.23%
  702s|   100 |    32 |  5893 |  45.6 |  1854M |  18 | 192k|  97k|1075 | 558 |  2 |  69k|1750 | 9.515506e+04 | 9.580314e+04 |   0.68%|   6.12%
* 727s|   107 |    31 |  6202 |  45.5 |strongbr|  18 | 192k|  97k|1086 | 584 |  4 |  69k|1807 | 9.515506e+04 | 9.579800e+04 |   0.68%|   6.19%
* 773s|   114 |    29 |  6486 |  45.2 |strongbr|  18 | 192k|  97k|1110 | 619 |  7 |  69k|1938 | 9.515506e+04 | 9.576504e+04 |   0.64%|   8.45%
* 911s|   139 |    33 |  7549 |  44.7 |strongbr|  18 | 192k|  98k|1091 | 698 |  3 |  70k|2318 | 9.515506e+04 | 9.573328e+04 |   0.61%|   9.67%
* 938s|   147 |    34 |  7724 |  43.5 |strongbr|  18 | 192k|  98k|1086 | 700 |  3 |  70k|2400 | 9.515506e+04 | 9.571208e+04 |   0.59%|  10.04%
* 943s|   147 |    34 |  7741 |  43.6 |strongbr|  18 | 192k|  98k|1086 | 700 |  8 |  70k|2412 | 9.515506e+04 | 9.570693e+04 |   0.58%|  10.04%
* 954s|   151 |    34 |  7792 |  42.8 |strongbr|  18 | 192k|  98k|1083 | 708 |  2 |  70k|2439 | 9.515506e+04 | 9.565761e+04 |   0.53%|  10.18%
* 968s|   154 |    33 |  7849 |  42.3 |strongbr|  18 | 192k|  98k|1083 | 708 |  3 |  70k|2484 | 9.515506e+04 | 9.562596e+04 |   0.49%|  10.84%
 time | node  | left  |LP iter|LP it/n|mem/heur|mdpt |vars |cons |rows |cuts |sepa|confs|strbr|  dualbound   | primalbound  |  gap   | compl. 
* 988s|   158 |    29 |  7955 |  41.9 |strongbr|  18 | 192k|  97k|1083 | 708 |  1 |  70k|2541 | 9.515506e+04 | 9.559732e+04 |   0.46%|  11.41%
*1028s|   165 |    28 |  8125 |  41.2 |    LP  |  18 | 192k|  97k|1083 | 713 |  1 |  70k|2664 | 9.515506e+04 | 9.557428e+04 |   0.44%|  12.03%
*1036s|   170 |    23 |  8234 |  40.6 |strongbr|  18 | 192k|  98k|1083 | 713 |  3 |  70k|2686 | 9.515506e+04 | 9.555484e+04 |   0.42%|  13.33%
*1037s|   170 |    20 |  8234 |  40.6 |strongbr|  18 | 192k|  98k|1083 | 713 |  3 |  70k|2687 | 9.515506e+04 | 9.552495e+04 |   0.39%|  13.76%
*1086s|   184 |    21 |  8465 |  38.7 |strongbr|  18 | 192k|  97k|1089 | 749 |  3 |  70k|2837 | 9.520940e+04 | 9.550830e+04 |   0.31%|  16.39%
*1089s|   184 |    21 |  8496 |  38.9 |strongbr|  18 | 192k|  97k|1089 | 749 |  7 |  70k|2847 | 9.520940e+04 | 9.550316e+04 |   0.31%|  16.39%
 1154s|   200 |    19 |  8962 |  38.1 |  1906M |  18 | 192k|  97k|1067 | 749 |  5 |  70k|3045 | 9.521631e+04 | 9.550316e+04 |   0.30%|  23.00%
*1252s|   238 |    15 | 10016 |  36.5 |strongbr|  18 | 192k|  97k|1076 | 784 |  1 |  70k|3309 | 9.521631e+04 | 9.544585e+04 |   0.24%|  27.09%
 1362s|   300 |    14 | 11070 |  32.4 |  1929M |  18 | 192k|  97k|1075 | 828 |  1 |  71k|3566 | 9.521712e+04 | 9.544585e+04 |   0.24%|  41.10%
*1366s|   303 |    12 | 11150 |  32.4 |strongbr|  18 | 192k|  97k|1085 | 839 |  3 |  71k|3567 | 9.521712e+04 | 9.541288e+04 |   0.21%|  41.43%
 1536s|   400 |    16 | 12884 |  28.8 |  1934M |  18 | 192k|  97k|1073 | 904 |  0 |  71k|3989 | 9.527646e+04 | 9.541288e+04 |   0.14%|  58.38%

SCIP Status        : solving was interrupted [gap limit reached]
Solving Time (sec) : 1593.00
Solving Nodes      : 484
Primal Bound       : +9.54128830724146e+04 (27 solutions)
Dual Bound         : +9.54122963529730e+04
Gap                : 0.00 %
Trying to solve problem with DFJ2 version 2.0 Method...
1593.0
Route:  [[0, 2], [1, 51], [2, 1], [3, 0], [4, 3], [5, 4], [6, 5], [7, 6], [8, 7], [9, 8], [10, 9], [11, 10], [12, 11], [13, 12], [14, 13], [15, 14], [16, 15], [17, 19], [18, 17], [19, 18], [20, 21], [21, 23], [22, 20], [23, 22], [24, 64], [25, 63], [26, 25], [27, 26], [28, 27], [29, 30], [30, 31], [31, 29], [32, 16], [33, 32], [34, 33], [35, 34], [36, 35], [37, 38], [38, 41], [39, 37], [40, 39], [41, 43], [42, 40], [43, 46], [44, 42], [45, 44], [46, 47], [47, 48], [48, 45], [49, 52], [50, 49], [51, 50], [52, 53], [53, 54], [54, 55], [55, 81], [56, 57], [57, 36], [58, 59], [59, 60], [60, 61], [61, 74], [62, 28], [63, 24], [64, 65], [65, 66], [66, 67], [67, 68], [68, 69], [69, 70], [70, 71], [71, 87], [72, 62], [73, 72], [74, 75], [75, 58], [76, 86], [77, 76], [78, 56], [79, 78], [80, 79], [81, 80], [82, 83], [83, 84], [84, 82], [85, 77], [86, 85], [87, 88], [88, 89], [89, 90], [90, 103], [91, 92], [92, 93], [93, 101], [94, 95], [95, 96], [96, 97], [97, 98], [98, 127], [99, 94], [100, 99], [101, 91], [102, 113], [103, 104], [104, 105], [105, 106], [106, 107], [107, 108], [108, 73], [109, 110], [110, 111], [111, 109], [112, 115], [113, 112], [114, 102], [115, 117], [116, 114], [117, 118], [118, 120], [119, 116], [120, 121], [121, 119], [122, 100], [123, 124], [124, 122], [125, 123], [126, 125], [127, 129], [128, 126], [129, 128], [130, 131], [131, 132], [132, 130], [133, 134], [134, 135], [135, 136], [136, 137], [137, 138], [138, 139], [139, 140], [140, 141], [141, 151], [142, 149], [143, 146], [144, 184], [145, 143], [146, 145], [147, 144], [148, 185], [149, 150], [150, 152], [151, 142], [152, 153], [153, 154], [154, 155], [155, 156], [156, 157], [157, 158], [158, 159], [159, 160], [160, 161], [161, 162], [162, 133], [163, 164], [164, 166], [165, 163], [166, 165], [167, 168], [168, 169], [169, 167], [170, 171], [171, 172], [172, 173], [173, 203], [174, 175], [175, 176], [176, 177], [177, 178], [178, 179], [179, 180], [180, 181], [181, 182], [182, 191], [183, 190], [184, 147], [185, 225], [186, 148], [187, 224], [188, 187], [189, 222], [190, 192], [191, 183], [192, 193], [193, 194], [194, 195], [195, 196], [196, 197], [197, 198], [198, 199], [199, 200], [200, 201], [201, 202], [202, 204], [203, 174], [204, 205], [205, 206], [206, 207], [207, 170], [208, 252], [209, 249], [210, 209], [211, 210], [212, 211], [213, 212], [214, 213], [215, 214], [216, 215], [217, 216], [218, 217], [219, 218], [220, 219], [221, 220], [222, 223], [223, 189], [224, 230], [225, 226], [226, 228], [227, 282], [228, 227], [229, 186], [230, 231], [231, 188], [232, 221], [233, 232], [234, 233], [235, 234], [236, 235], [237, 236], [238, 237], [239, 238], [240, 239], [241, 240], [242, 241], [243, 242], [244, 243], [245, 244], [246, 245], [247, 246], [248, 247], [249, 250], [250, 208], [251, 248], [252, 251], [253, 315], [254, 253], [255, 254], [256, 255], [257, 256], [258, 257], [259, 258], [260, 259], [261, 260], [262, 261], [263, 262], [264, 263], [265, 264], [266, 265], [267, 266], [268, 267], [269, 268], [270, 269], [271, 270], [272, 274], [273, 272], [274, 273], [275, 278], [276, 275], [277, 276], [278, 277], [279, 285], [280, 229], [281, 280], [282, 283], [283, 343], [284, 279], [285, 286], [286, 339], [287, 288], [288, 289], [289, 287], [290, 291], [291, 292], [292, 290], [293, 294], [294, 295], [295, 296], [296, 297], [297, 298], [298, 299], [299, 332], [300, 271], [301, 300], [302, 301], [303, 302], [304, 303], [305, 304], [306, 305], [307, 306], [308, 307], [309, 308], [310, 309], [311, 310], [312, 311], [313, 312], [314, 313], [315, 314], [316, 318], [317, 316], [318, 317], [319, 320], [320, 321], [321, 319], [322, 325], [323, 322], [324, 323], [325, 324], [326, 328], [327, 326], [328, 327], [329, 331], [330, 329], [331, 330], [332, 333], [333, 334], [334, 335], [335, 336], [336, 337], [337, 338], [338, 293], [339, 284], [340, 281], [341, 340], [342, 341], [343, 342], [344, 345], [345, 347], [346, 344], [347, 348], [348, 346], [349, 350], [350, 352], [351, 349], [352, 353], [353, 351], [354, 356], [355, 354], [356, 358], [357, 355], [358, 357], [359, 360], [360, 369], [361, 362], [362, 363], [363, 364], [364, 365], [365, 366], [366, 377], [367, 368], [368, 361], [369, 359], [370, 372], [371, 370], [372, 371], [373, 380], [374, 373], [375, 379], [376, 375], [377, 367], [378, 376], [379, 389], [380, 374], [381, 383], [382, 381], [383, 382], [384, 386], [385, 384], [386, 385], [387, 414], [388, 378], [389, 388], [390, 398], [391, 390], [392, 393], [393, 394], [394, 392], [395, 406], [396, 395], [397, 396], [398, 391], [399, 400], [400, 387], [401, 403], [402, 408], [403, 404], [404, 416], [405, 397], [406, 405], [407, 402], [408, 407], [409, 410], [410, 425], [411, 412], [412, 422], [413, 420], [414, 415], [415, 399], [416, 401], [417, 428], [418, 413], [419, 418], [420, 419], [421, 411], [422, 421], [423, 424], [424, 409], [425, 423], [426, 429], [427, 417], [428, 430], [429, 431], [430, 427], [431, 432], [432, 426], [433, 436], [434, 435], [435, 438], [436, 437], [437, 433], [438, 434]]
A Solution was found
Objective value: 95412.9
Problem solved in 14248 iterations
Problem solved in 484 nodes
Final Route Configuration succesfully created at:
data/routes/pr439.csv
